Prototype/modified-results/vertexcover2-2/vertexcover2010.dat-s
"Vertexcover tests with graphs with 20 vertices and 1-190 edges"
59
1
{21}
1 0 0 0 0 0 0 0 0 0 0 0 0 0 0 0 0 0 0 0 0 2 2 2 2 2 2 2 2 2 2 2 2 2 2 2 2 2 2 2 2 2 2 2 2 2 2 2 2 2 2 2 2 2 2 2 2 2 2
0 1 1 1 -1.0
0 1 2 2 -1.0
0 1 3 3 -1.0
0 1 4 4 -1.0
0 1 5 5 -1.0
0 1 6 6 -1.0
0 1 7 7 -1.0
0 1 8 8 -1.0
0 1 9 9 -1.0
0 1 10 10 -1.0
0 1 11 11 -1.0
0 1 12 12 -1.0
0 1 13 13 -1.0
0 1 14 14 -1.0
0 1 15 15 -1.0
0 1 16 16 -1.0
0 1 17 17 -1.0
0 1 18 18 -1.0
0 1 19 19 -1.0
0 1 20 20 -1.0
0 1 21 21 -1.0
1 1 1 1 1.0
2 1 1 2 -1.0
2 1 2 2 2.0
3 1 1 3 -1.0
3 1 3 3 2.0
4 1 1 4 -1.0
4 1 4 4 2.0
5 1 1 5 -1.0
5 1 5 5 2.0
6 1 1 6 -1.0
6 1 6 6 2.0
7 1 1 7 -1.0
7 1 7 7 2.0
8 1 1 8 -1.0
8 1 8 8 2.0
9 1 1 9 -1.0
9 1 9 9 2.0
10 1 1 10 -1.0
10 1 10 10 2.0
11 1 1 11 -1.0
11 1 11 11 2.0
12 1 1 12 -1.0
12 1 12 12 2.0
13 1 1 13 -1.0
13 1 13 13 2.0
14 1 1 14 -1.0
14 1 14 14 2.0
15 1 1 15 -1.0
15 1 15 15 2.0
16 1 1 16 -1.0
16 1 16 16 2.0
17 1 1 17 -1.0
17 1 17 17 2.0
18 1 1 18 -1.0
18 1 18 18 2.0
19 1 1 19 -1.0
19 1 19 19 2.0
20 1 1 20 -1.0
20 1 20 20 2.0
21 1 1 21 -1.0
21 1 21 21 2.0
22 1 1 2 1.0
22 1 1 10 1.0
22 1 2 10 -1.0
23 1 1 2 1.0
23 1 1 11 1.0
23 1 2 11 -1.0
24 1 1 2 1.0
24 1 1 15 1.0
24 1 2 15 -1.0
25 1 1 2 1.0
25 1 1 20 1.0
25 1 2 20 -1.0
26 1 1 3 1.0
26 1 1 7 1.0
26 1 3 7 -1.0
27 1 1 3 1.0
27 1 1 8 1.0
27 1 3 8 -1.0
28 1 1 3 1.0
28 1 1 11 1.0
28 1 3 11 -1.0
29 1 1 3 1.0
29 1 1 16 1.0
29 1 3 16 -1.0
30 1 1 3 1.0
30 1 1 17 1.0
30 1 3 17 -1.0
31 1 1 4 1.0
31 1 1 12 1.0
31 1 4 12 -1.0
32 1 1 5 1.0
32 1 1 17 1.0
32 1 5 17 -1.0
33 1 1 5 1.0
33 1 1 19 1.0
33 1 5 19 -1.0
34 1 1 6 1.0
34 1 1 9 1.0
34 1 6 9 -1.0
35 1 1 6 1.0
35 1 1 12 1.0
35 1 6 12 -1.0
36 1 1 6 1.0
36 1 1 14 1.0
36 1 6 14 -1.0
37 1 1 6 1.0
37 1 1 17 1.0
37 1 6 17 -1.0
38 1 1 6 1.0
38 1 1 19 1.0
38 1 6 19 -1.0
39 1 1 7 1.0
39 1 1 18 1.0
39 1 7 18 -1.0
40 1 1 7 1.0
40 1 1 21 1.0
40 1 7 21 -1.0
41 1 1 8 1.0
41 1 1 13 1.0
41 1 8 13 -1.0
42 1 1 8 1.0
42 1 1 19 1.0
42 1 8 19 -1.0
43 1 1 9 1.0
43 1 1 13 1.0
43 1 9 13 -1.0
44 1 1 9 1.0
44 1 1 16 1.0
44 1 9 16 -1.0
45 1 1 10 1.0
45 1 1 18 1.0
45 1 10 18 -1.0
46 1 1 10 1.0
46 1 1 20 1.0
46 1 10 20 -1.0
47 1 1 11 1.0
47 1 1 15 1.0
47 1 11 15 -1.0
48 1 1 11 1.0
48 1 1 19 1.0
48 1 11 19 -1.0
49 1 1 12 1.0
49 1 1 13 1.0
49 1 12 13 -1.0
50 1 1 12 1.0
50 1 1 15 1.0
50 1 12 15 -1.0
51 1 1 13 1.0
51 1 1 14 1.0
51 1 13 14 -1.0
52 1 1 13 1.0
52 1 1 17 1.0
52 1 13 17 -1.0
53 1 1 13 1.0
53 1 1 19 1.0
53 1 13 19 -1.0
54 1 1 14 1.0
54 1 1 17 1.0
54 1 14 17 -1.0
55 1 1 15 1.0
55 1 1 17 1.0
55 1 15 17 -1.0
56 1 1 15 1.0
56 1 1 20 1.0
56 1 15 20 -1.0
57 1 1 15 1.0
57 1 1 21 1.0
57 1 15 21 -1.0
58 1 1 16 1.0
58 1 1 21 1.0
58 1 16 21 -1.0
59 1 1 18 1.0
59 1 1 19 1.0
59 1 18 19 -1.0
