Prototype/modified-results/vertexcover2-2/vertexcover2010.dat-s.log
SDPA (Version 7.3.6) start at [Thu Jul 15 21:27:32 2021]
param is ./param.sdpa
data  is G:\Research\PhysarumSDPSolver\SDPA\testSet\vertexcover2\vertexcover2010.dat-s : sparse
out   is G:\Research\PhysarumSDPSolver\SDPA\testSet\vertexcover2\vertexcover2010.dat-s.res
NumThreads  is set as 1
Schur computation : DENSE 
   mu      thetaP  thetaD  objP      objD      alphaP  alphaD  beta 
Entering DMUMPS driver with JOB, N, NZ =  -2           0              0
 0 1.0e+004 1.0e+000 1.0e+000 -0.00e+000 -2.10e+003 1.0e+000 8.4e-001 2.00e-001
 1 2.3e+003 0.0e+000 1.6e-001 +1.34e+003 -3.92e+002 8.4e-001 8.4e-001 2.00e-001
 2 5.5e+002 2.9e-016 2.7e-002 +1.66e+003 -7.28e+001 1.5e+000 7.3e-001 2.00e-001
 3 2.2e+002 2.9e-016 7.1e-003 +1.30e+003 -2.86e+001 9.2e-001 6.3e-001 2.00e-001
 4 9.8e+001 2.9e-016 2.6e-003 +8.55e+002 -1.97e+001 7.1e-001 6.2e-001 2.00e-001
 5 4.5e+001 5.7e-016 9.8e-004 +5.09e+002 -1.70e+001 7.6e-001 8.2e-001 2.00e-001
 6 1.6e+001 2.9e-016 1.7e-004 +2.59e+002 -1.60e+001 1.0e+000 1.0e+000 2.00e-001
 7 3.5e+000 4.3e-016 9.6e-016 +5.67e+001 -1.58e+001 8.8e-001 3.4e+000 1.00e-001
 8 6.7e-001 3.9e-016 5.9e-015 -7.92e-001 -1.49e+001 7.2e-001 9.6e-001 1.00e-001
 9 2.3e-001 3.9e-016 9.2e-016 -9.53e+000 -1.43e+001 6.5e-001 7.0e-001 1.00e-001
10 9.1e-002 3.9e-016 7.6e-016 -1.15e+001 -1.34e+001 8.3e-001 7.0e-001 1.00e-001
11 3.1e-002 3.9e-016 5.8e-016 -1.19e+001 -1.25e+001 1.1e+000 8.9e-001 1.00e-001
12 5.3e-003 4.0e-016 1.2e-016 -1.20e+001 -1.21e+001 9.5e-001 9.5e-001 1.00e-001
13 7.7e-004 4.0e-016 3.6e-017 -1.20e+001 -1.20e+001 9.6e-001 9.6e-001 1.00e-001
14 1.0e-004 4.0e-016 4.6e-016 -1.20e+001 -1.20e+001 9.7e-001 9.8e-001 1.00e-001
15 1.2e-005 4.0e-016 3.0e-015 -1.20e+001 -1.20e+001 9.9e-001 1.0e+000 1.00e-001
16 1.3e-006 4.0e-016 5.3e-014 -1.20e+001 -1.20e+001 9.9e-001 1.0e+000 1.00e-001
17 1.3e-007 4.0e-016 3.5e-013 -1.20e+001 -1.20e+001 9.9e-001 1.0e+000 1.00e-001
18 1.3e-008 4.0e-016 2.2e-012 -1.20e+001 -1.20e+001 9.9e-001 1.0e+000 1.00e-001

phase.value  = pdOPT     
   Iteration = 18
          mu = +1.2906499065257733e-008
relative gap = +2.2480299791455790e-008
        gap  = +2.6976359990271703e-007
     digits  = +7.6481979014256263e+000
objValPrimal = -1.1999999972111771e+001
objValDual   = -1.2000000241875371e+001
p.feas.error = +3.9523939676655573e-014
d.feas.error = +4.4987302771914983e-010
total time   = 0.084807
  main loop time = 0.084807
      total time = 0.084807
file  check time = 0.000000
file change time = 0.000000
file   read time = 0.000000
SDPA end at [Thu Jul 15 21:27:32 2021]
ALL TIME = 0.088801
